10	5
0	3	1	2	3
1	2	5	6
2	2	6	9
3	2	6	9
4	1	11
5	2	9	7
6	1	7
7	2	4	11
8	1	10
9	1	11
10	1	11
11	0
0	0	0	0	0	0	0
1	7	4	2	5	0	1
2	7	2	4	2	1	1
3	7	1	1	2	3	1
4	7	4	3	4	5	3
5	1	5	1	3	5	0
6	1	1	0	1	0	1
7	10	0	2	0	5	4
8	5	0	2	2	4	0
9	9	3	3	0	2	0
10	6	4	1	5	0	0
11	0	0	0	0	0	0
5	5	5	5	5
